36
1 0 7
2 0 4
2 1 10
3 0 8
3 1 12
3 2 9
4 0 12
4 1 8
4 2 10
4 3 1
5 0 5
5 1 9
5 2 5
5 3 13
5 4 3
6 0 18
6 1 2
6 2 6
6 3 16
6 4 18
6 5 2
7 0 4
7 1 14
7 2 14
7 3 12
7 4 19
7 5 6
7 6 9
8 0 11
8 1 6
8 2 18
8 3 11
8 4 4
8 5 11
8 6 3
8 7 8
9 0 8
9 1 9
9 2 11
9 3 17
9 4 12
9 5 5
9 6 12
9 7 7
9 8 6
10 0 3
10 1 2
10 2 15
10 3 9
10 4 14
10 5 4
10 6 14
10 7 3
10 8 15
10 9 6
11 0 11
11 1 13
11 2 18
11 3 16
11 4 3
11 5 17
11 6 4
11 7 6
11 8 11
11 9 10
11 10 18
12 0 5
12 1 4
12 2 10
12 3 4
12 4 5
12 5 12
12 6 8
12 7 17
12 8 2
12 9 8
12 10 4
12 11 2
13 0 17
13 1 19
13 2 14
13 3 8
13 4 19
13 5 12
13 6 13
13 7 12
13 8 10
13 9 15
13 10 4
13 11 6
13 12 11
14 0 2
14 1 18
14 2 8
14 3 19
14 4 14
14 5 4
14 6 10
14 7 8
14 8 14
14 9 1
14 10 13
14 11 18
14 12 17
14 13 19
15 0 19
15 1 18
15 2 9
15 3 19
15 4 2
15 5 1
15 6 19
15 7 7
15 8 17
15 9 3
15 10 15
15 11 6
15 12 13
15 13 18
15 14 7
16 0 9
16 1 11
16 2 9
16 3 3
16 4 8
16 5 19
16 6 10
16 7 7
16 8 7
16 9 19
16 10 3
16 11 9
16 12 19
16 13 19
16 14 5
16 15 18
17 0 3
17 1 4
17 2 3
17 3 2
17 4 10
17 5 18
17 6 17
17 7 6
17 8 2
17 9 14
17 10 6
17 11 18
17 12 18
17 13 12
17 14 3
17 15 8
17 16 16
18 0 4
18 1 1
18 2 16
18 3 1
18 4 10
18 5 15
18 6 11
18 7 8
18 8 6
18 9 9
18 10 3
18 11 8
18 12 12
18 13 10
18 14 18
18 15 10
18 16 9
18 17 18
19 0 13
19 1 16
19 2 1
19 3 11
19 4 2
19 5 4
19 6 14
19 7 18
19 8 13
19 9 5
19 10 12
19 11 16
19 12 10
19 13 8
19 14 5
19 15 8
19 16 2
19 17 12
19 18 11
20 0 18
20 1 1
20 2 8
20 3 1
20 4 14
20 5 6
20 6 9
20 7 12
20 8 13
20 9 9
20 10 19
20 11 11
20 12 15
20 13 16
20 14 2
20 15 6
20 16 3
20 17 18
20 18 10
20 19 19
21 0 12
21 1 7
21 2 10
21 3 17
21 4 1
21 5 10
21 6 13
21 7 1
21 8 12
21 9 19
21 10 5
21 11 8
21 12 17
21 13 11
21 14 2
21 15 4
21 16 18
21 17 18
21 18 14
21 19 8
21 20 11
22 0 1
22 1 11
22 2 18
22 3 9
22 4 18
22 5 18
22 6 11
22 7 1
22 8 7
22 9 13
22 10 5
22 11 2
22 12 12
22 13 3
22 14 5
22 15 5
22 16 5
22 17 7
22 18 15
22 19 11
22 20 8
22 21 12
23 0 14
23 1 5
23 2 15
23 3 19
23 4 19
23 5 17
23 6 5
23 7 5
23 8 10
23 9 3
23 10 3
23 11 14
23 12 7
23 13 7
23 14 3
23 15 11
23 16 11
23 17 17
23 18 9
23 19 5
23 20 12
23 21 8
23 22 3
24 0 7
24 1 1
24 2 11
24 3 2
24 4 13
24 5 6
24 6 9
24 7 10
24 8 18
24 9 4
24 10 8
24 11 16
24 12 14
24 13 5
24 14 4
24 15 6
24 16 14
24 17 3
24 18 9
24 19 8
24 20 8
24 21 8
24 22 12
24 23 13
25 0 13
25 1 4
25 2 15
25 3 16
25 4 16
25 5 8
25 6 4
25 7 4
25 8 17
25 9 11
25 10 17
25 11 11
25 12 7
25 13 13
25 14 12
25 15 12
25 16 2
25 17 7
25 18 2
25 19 1
25 20 19
25 21 5
25 22 13
25 23 10
25 24 14
26 0 17
26 1 19
26 2 15
26 3 6
26 4 5
26 5 5
26 6 15
26 7 1
26 8 10
26 9 11
26 10 17
26 11 7
26 12 11
26 13 14
26 14 7
26 15 10
26 16 16
26 17 1
26 18 3
26 19 2
26 20 16
26 21 18
26 22 13
26 23 3
26 24 17
26 25 18
27 0 8
27 1 18
27 2 7
27 3 8
27 4 11
27 5 13
27 6 5
27 7 13
27 8 14
27 9 1
27 10 5
27 11 5
27 12 1
27 13 7
27 14 4
27 15 15
27 16 14
27 17 2
27 18 9
27 19 2
27 20 5
27 21 19
27 22 2
27 23 16
27 24 17
27 25 7
27 26 5
28 0 16
28 1 1
28 2 18
28 3 10
28 4 5
28 5 9
28 6 2
28 7 12
28 8 15
28 9 15
28 10 4
28 11 10
28 12 3
28 13 2
28 14 3
28 15 13
28 16 15
28 17 10
28 18 8
28 19 4
28 20 19
28 21 14
28 22 19
28 23 10
28 24 5
28 25 18
28 26 7
28 27 13
29 0 10
29 1 17
29 2 17
29 3 13
29 4 12
29 5 2
29 6 17
29 7 15
29 8 12
29 9 17
29 10 13
29 11 8
29 12 15
29 13 1
29 14 4
29 15 6
29 16 17
29 17 17
29 18 7
29 19 7
29 20 7
29 21 17
29 22 9
29 23 11
29 24 16
29 25 4
29 26 9
29 27 15
29 28 9
30 0 17
30 1 18
30 2 12
30 3 11
30 4 6
30 5 9
30 6 12
30 7 6
30 8 18
30 9 9
30 10 6
30 11 9
30 12 19
30 13 12
30 14 4
30 15 19
30 16 5
30 17 1
30 18 1
30 19 6
30 20 12
30 21 14
30 22 5
30 23 3
30 24 10
30 25 3
30 26 18
30 27 4
30 28 19
30 29 2
31 0 13
31 1 4
31 2 8
31 3 11
31 4 4
31 5 3
31 6 11
31 7 10
31 8 4
31 9 5
31 10 18
31 11 1
31 12 17
31 13 1
31 14 13
31 15 17
31 16 3
31 17 2
31 18 3
31 19 11
31 20 1
31 21 19
31 22 5
31 23 18
31 24 4
31 25 13
31 26 14
31 27 13
31 28 5
31 29 10
31 30 5
32 0 6
32 1 15
32 2 6
32 3 10
32 4 16
32 5 13
32 6 19
32 7 10
32 8 17
32 9 12
32 10 16
32 11 10
32 12 7
32 13 16
32 14 11
32 15 15
32 16 10
32 17 11
32 18 11
32 19 15
32 20 11
32 21 14
32 22 14
32 23 14
32 24 3
32 25 10
32 26 11
32 27 16
32 28 4
32 29 9
32 30 11
32 31 2
33 0 13
33 1 2
33 2 7
33 3 7
33 4 19
33 5 17
33 6 16
33 7 12
33 8 2
33 9 19
33 10 17
33 11 14
33 12 7
33 13 15
33 14 8
33 15 17
33 16 16
33 17 2
33 18 4
33 19 6
33 20 10
33 21 10
33 22 17
33 23 11
33 24 7
33 25 14
33 26 6
33 27 12
33 28 14
33 29 1
33 30 2
33 31 2
33 32 6
34 0 2
34 1 12
34 2 18
34 3 9
34 4 19
34 5 7
34 6 17
34 7 14
34 8 16
34 9 16
34 10 17
34 11 14
34 12 6
34 13 7
34 14 2
34 15 10
34 16 13
34 17 1
34 18 12
34 19 2
34 20 10
34 21 6
34 22 12
34 23 10
34 24 1
34 25 7
34 26 19
34 27 6
34 28 16
34 29 13
34 30 2
34 31 13
34 32 4
34 33 5
35 0 18
35 1 14
35 2 1
35 3 10
35 4 9
35 5 4
35 6 18
35 7 14
35 8 7
35 9 9
35 10 11
35 11 10
35 12 8
35 13 17
35 14 15
35 15 13
35 16 19
35 17 3
35 18 18
35 19 13
35 20 16
35 21 15
35 22 7
35 23 13
35 24 10
35 25 8
35 26 10
35 27 16
35 28 14
35 29 16
35 30 9
35 31 9
35 32 3
35 33 10
35 34 15
